
Gurobi 9.5.1 (linux64) logging started Sun Jun 19 03:46:29 2022

Set parameter LogFile to value "../results/logs/log_com-youtube.ungraph_20_2_2022_06_19_02_07.log"
Gurobi Optimizer version 9.5.1 build v9.5.1rc2 (linux64)
Thread count: 8 physical cores, 8 logical processors, using up to 8 threads
Optimize a model with 6231 rows, 2269780 columns and 1399227 nonzeros
Model fingerprint: 0x9d49fd6a
Variable types: 0 continuous, 2269780 integer (2269780 binary)
Coefficient statistics:
  Matrix range     [1e+00, 2e+01]
  Objective range  [1e+00, 1e+00]
  Bounds range     [1e+00, 1e+00]
  RHS range        [1e+00, 2e+00]
Found heuristic solution: objective 18890.000000
Presolve removed 1787 rows and 2257537 columns
Presolve time: 1.24s
Presolved: 4444 rows, 12243 columns, 40548 nonzeros
Found heuristic solution: objective 18894.000000
Variable types: 0 continuous, 12243 integer (9651 binary)

Root relaxation: objective 1.980123e+04, 3003 iterations, 0.05 seconds (0.05 work units)

    Nodes    |    Current Node    |     Objective Bounds      |     Work
 Expl Unexpl |  Obj  Depth IntInf | Incumbent    BestBd   Gap | It/Node Time

     0     0 19800.4632    0 1534 18894.0000 19800.4632  4.80%     -    1s
H    0     0                    18916.000000 19800.4632  4.68%     -    2s
     0     0 19089.7458    0  442 18916.0000 19089.7458  0.92%     -    2s
H    0     0                    18917.000000 19089.7458  0.91%     -    2s
H    0     0                    18918.000000 19049.7014  0.70%     -    2s
     0     0 19049.7014    0  403 18918.0000 19049.7014  0.70%     -    2s
     0     0 19047.6098    0  302 18918.0000 19047.6098  0.69%     -    2s
     0     0 19047.0540    0  373 18918.0000 19047.0540  0.68%     -    2s
     0     0 19046.8760    0  309 18918.0000 19046.8760  0.68%     -    2s
     0     0 18980.0546    0  276 18918.0000 18980.0546  0.33%     -    2s
     0     0 18969.9687    0  254 18918.0000 18969.9687  0.27%     -    2s
     0     0 18967.5826    0  223 18918.0000 18967.5826  0.26%     -    2s
     0     0 18966.9476    0  326 18918.0000 18966.9476  0.26%     -    3s
     0     0 18966.6166    0  263 18918.0000 18966.6166  0.26%     -    3s
H    0     0                    18920.000000 18961.7726  0.22%     -    3s
     0     0 18961.7726    0  271 18920.0000 18961.7726  0.22%     -    3s
H    0     0                    18922.000000 18961.7726  0.21%     -    3s
     0     0 18960.2290    0  181 18922.0000 18960.2290  0.20%     -    4s
     0     0 18959.2984    0  254 18922.0000 18959.2984  0.20%     -    4s
     0     0 18959.1633    0  190 18922.0000 18959.1633  0.20%     -    4s
     0     0 18956.9221    0  257 18922.0000 18956.9221  0.18%     -    4s
     0     0 18956.8937    0  230 18922.0000 18956.8937  0.18%     -    4s
     0     0 18956.8937    0  230 18922.0000 18956.8937  0.18%     -    4s
     0     2 18951.2860    0  230 18922.0000 18951.2860  0.15%     -    5s

Cutting planes:
  Gomory: 46
  Lift-and-project: 12
  Cover: 49
  Implied bound: 4
  MIR: 729
  StrongCG: 61
  GUB cover: 81
  Inf proof: 1
  Zero half: 82
  RLT: 472
  Relax-and-lift: 10

Explored 904 nodes (42886 simplex iterations) in 9.72 seconds (10.08 work units)
Thread count was 8 (of 8 available processors)

Solution count 7: 18922 18920 18918 ... 18890

Optimal solution found (tolerance 0.00e+00)
Best objective 1.892200000000e+04, best bound 1.892200000000e+04, gap 0.0000%
